45 86 33 44 41 78 20 77 91 100 
39 76 23 87 99 84 57 82 51 32 35 5 12 
42 40 22 66 97 16 89 25 80 
96 
36 69 15 37 10 60 1 
74 70 
83 
14 67 18 
28 88 85 29 9 46 71 
92 30 7 59 6 4 48 
75 58 
27 
13 95 
62 24 19 34 38 
63 31 11 53 61 
79 98 73 8 
26 65 2 3 43 64 94 47 49 72 56 21 52 68 55 17 90 81 54 50 93 

